33D32945 STP File, STP Format Version 1.0

SECTION Comments
Name "shell_n10_d3_s7"
Problem "Euclidean Steiner Tree Problem"
Remark "Generated with STPGenerator. 3 dimensions."
END

SECTION Graph
Nodes 10
END

SECTION Coordinates
DDD 0 -0.0344924225 0.9691942182 0.2438705396
DDD 1 -0.9418320885 -0.3354427436 0.0207480820
DDD 2 0.8038522513 0.5945193565 0.0191909563
DDD 3 0.8579525579 0.5050971124 0.0937780120
DDD 4 0.8252887164 0.0309083124 0.5638645324
DDD 5 0.3129081725 0.2380427113 -0.9194694901
DDD 6 -0.6521874204 -0.3989379517 0.6445929563
DDD 7 0.6668586672 -0.4982183179 -0.5541462133
DDD 8 -0.5310234554 0.4115979241 0.7406762036
DDD 9 0.3595080512 0.3402824084 0.8688854031
END
